Features/ForMiniZinc/benchmark_puzzles/benchmarks5x5/60/puzzle10.dzn
S = 5;
start = [|16,0,15,8,0,1,0,0,0,0,12,0,0,7,6,0,0,10,5,20,0,3,0,9,0|
0,24,3,0,0,14,0,22,4,0,21,11,0,0,0,0,0,0,2,0,0,0,0,0,0|
0,0,0,0,12,0,0,3,0,16,0,0,25,0,24,7,0,0,0,0,0,10,1,23,18|
0,6,0,0,0,0,8,0,0,0,0,1,0,0,0,0,0,0,0,3,12,0,24,0,0|
0,19,0,0,25,6,0,10,21,2,20,0,3,0,0,24,0,0,0,0,0,0,13,0,0|
0,0,0,0,1,4,25,8,18,17,11,10,0,0,0,0,0,13,24,0,0,0,0,0,23|
18,0,17,13,21,0,0,0,14,0,0,0,0,9,0,0,0,23,0,25,0,19,0,0,16|
0,0,0,16,4,22,6,1,20,0,0,23,0,24,21,0,2,0,0,0,0,0,0,0,3|
0,20,14,0,24,0,0,0,0,0,0,0,0,0,0,0,0,0,0,0,6,0,12,2,0|
0,0,9,3,0,24,2,21,13,11,22,20,0,25,0,16,0,8,0,0,5,4,7,0,10|
13,25,0,20,5,15,0,11,22,0,18,0,21,1,0,14,9,0,0,0,10,0,0,19,0|
1,0,0,0,19,0,0,0,0,0,0,0,0,17,5,10,22,0,25,11,15,13,0,18,0|
23,9,0,0,0,0,0,2,0,0,0,13,0,0,0,0,0,0,0,19,0,20,16,8,0|
0,0,0,10,0,0,0,0,9,25,0,15,0,0,0,0,0,24,20,0,23,0,0,0,0|
0,18,0,0,0,12,0,0,0,0,9,0,8,20,0,2,0,1,23,17,3,0,6,0,25|
4,0,0,0,20,0,0,0,23,0,3,16,14,0,11,0,25,0,1,0,0,0,0,17,9|
21,0,11,23,0,20,22,0,6,0,0,0,0,0,0,0,0,2,0,0,1,0,0,13,12|
7,15,10,19,9,17,0,0,2,0,0,21,0,22,0,0,11,3,12,0,0,25,20,0,6|
0,2,1,0,0,9,4,0,11,0,0,0,20,6,0,0,0,0,0,22,7,23,19,0,0|
0,17,0,5,18,0,0,0,0,0,0,0,0,13,2,0,0,0,0,6,21,14,22,4,0|
9,0,0,17,0,23,0,7,0,0,0,2,0,0,0,0,0,0,0,18,0,22,4,0,0|
12,0,0,0,0,0,0,0,0,0,0,0,0,0,0,0,21,14,0,23,13,8,0,0,0|
3,0,0,18,10,2,0,0,24,6,0,0,0,4,0,8,0,0,0,15,16,0,0,0,1|
0,0,22,0,15,0,0,0,0,0,23,18,0,3,8,0,0,4,11,2,0,0,0,12,7|
14,0,20,0,6,8,11,0,0,0,1,0,17,16,19,9,3,25,0,13,0,21,23,0,15|];